# =======================================
# Input for PAW1 tutorial
# Diamond at experimental volume
# =======================================

#Cell and atoms definition
 acell 3*3.567 angstrom
 rprim 0.0 1/2 1/2
       1/2 0.0 1/2
       1/2 1/2 0.0
 ntypat 1  natom 2  typat 2*1
 xred 0.0 0.0 0.0
      1/4 1/4 1/4
 znucl 6  nband 8

#Grid definitions
 ecut 15.
 ecutsm 0.5
 pawecutdg 50

#SCF cycle parameters
 tolvrs 1.0d-10
 nstep 20

#K-points and sym
 nsym 0       
 occopt 1
 ngkpt 4 4 4
 nshiftk 4
 shiftk 0.5 0.5 0.5
        0.5 0.0 0.0
        0.0 0.5 0.0
        0.0 0.0 0.5

#I/O parameters
# prtwf 0 prtden 0  prteig 0

prtvol    4
pawprtvol 3
pawprtwf 1

#wannier functions
plowan_compute 1
plowan_bandi  1
plowan_bandf  8
plowan_natom  2
plowan_iatom 1 2
plowan_nbl  2 2
plowan_lcalc 0 1 0 1
plowan_projcalc 1 2 3 4

## After modifying the following section, one might need to regenerate the pickle database with runtests.py -r
#%%<BEGIN TEST_INFO>
#%% [setup]
#%% executable = abinit
#%% [files]
#%% files_to_test = 
#%%   tpaw1_1.out, tolnlines=  0, tolabs=  0.000e+00, tolrel=  0.000e+00
#%% psp_files =  6c.pspnc
#%% [paral_info]
#%% max_nprocs = 4
#%% [extra_info]
#%% authors = M. Torrent
#%% keywords = PAW
#%% description = 
#%%   Input for PAW1 tutorial
#%%   Diamond at experimental volume
#%%<END TEST_INFO>
